\ LP format - for model browsing. Use MPS format to capture full model detail.
Maximize
  x[0] + 4 x[1]
Subject To
 knapsack-w: 2 x[0] + 4 x[1] <= 12
 knapsack-v: 5 x[0] + 3 x[1] <= 15
Bounds
Generals
 x[0] x[1]
End
